certificates/rado_a11_c182_N35.cnf
c Rad2 upper bound instance: x1 + 11*x2 - x3 = 182, interval [1,35]
p cnf 35 220
1 6 17 0
-1 -6 -17 0
1 17 18 0
-1 -17 -18 0
1 19 28 0
-1 -19 -28 0
2 7 17 0
-2 -7 -17 0
2 18 0
-2 -18 0
2 19 29 0
-2 -19 -29 0
3 8 17 0
-3 -8 -17 0
3 18 19 0
-3 -18 -19 0
3 19 30 0
-3 -19 -30 0
4 9 17 0
-4 -9 -17 0
4 18 20 0
-4 -18 -20 0
4 19 31 0
-4 -19 -31 0
5 10 17 0
-5 -10 -17 0
5 18 21 0
-5 -18 -21 0
5 19 32 0
-5 -19 -32 0
6 11 17 0
-6 -11 -17 0
6 18 22 0
-6 -18 -22 0
6 19 33 0
-6 -19 -33 0
1 7 16 0
-1 -7 -16 0
7 12 17 0
-7 -12 -17 0
7 18 23 0
-7 -18 -23 0
7 19 34 0
-7 -19 -34 0
2 8 16 0
-2 -8 -16 0
8 13 17 0
-8 -13 -17 0
8 18 24 0
-8 -18 -24 0
8 19 35 0
-8 -19 -35 0
3 9 16 0
-3 -9 -16 0
9 14 17 0
-9 -14 -17 0
9 18 25 0
-9 -18 -25 0
4 10 16 0
-4 -10 -16 0
10 15 17 0
-10 -15 -17 0
10 18 26 0
-10 -18 -26 0
5 11 16 0
-5 -11 -16 0
11 16 17 0
-11 -16 -17 0
11 18 27 0
-11 -18 -27 0
6 12 16 0
-6 -12 -16 0
12 17 0
-12 -17 0
12 18 28 0
-12 -18 -28 0
7 13 16 0
-7 -13 -16 0
13 17 18 0
-13 -17 -18 0
13 18 29 0
-13 -18 -29 0
8 14 16 0
-8 -14 -16 0
14 17 19 0
-14 -17 -19 0
14 18 30 0
-14 -18 -30 0
9 15 16 0
-9 -15 -16 0
15 17 20 0
-15 -17 -20 0
15 18 31 0
-15 -18 -31 0
10 16 0
-10 -16 0
16 17 21 0
-16 -17 -21 0
16 18 32 0
-16 -18 -32 0
17 22 0
-17 -22 0
17 18 33 0
-17 -18 -33 0
1 15 18 0
-1 -15 -18 0
12 16 18 0
-12 -16 -18 0
17 18 23 0
-17 -18 -23 0
18 34 0
-18 -34 0
2 15 19 0
-2 -15 -19 0
13 16 19 0
-13 -16 -19 0
17 19 24 0
-17 -19 -24 0
18 19 35 0
-18 -19 -35 0
3 15 20 0
-3 -15 -20 0
14 16 20 0
-14 -16 -20 0
17 20 25 0
-17 -20 -25 0
4 15 21 0
-4 -15 -21 0
15 16 21 0
-15 -16 -21 0
17 21 26 0
-17 -21 -26 0
5 15 22 0
-5 -15 -22 0
16 22 0
-16 -22 0
17 22 27 0
-17 -22 -27 0
6 15 23 0
-6 -15 -23 0
16 17 23 0
-16 -17 -23 0
17 23 28 0
-17 -23 -28 0
7 15 24 0
-7 -15 -24 0
16 18 24 0
-16 -18 -24 0
17 24 29 0
-17 -24 -29 0
8 15 25 0
-8 -15 -25 0
16 19 25 0
-16 -19 -25 0
17 25 30 0
-17 -25 -30 0
9 15 26 0
-9 -15 -26 0
16 20 26 0
-16 -20 -26 0
17 26 31 0
-17 -26 -31 0
10 15 27 0
-10 -15 -27 0
16 21 27 0
-16 -21 -27 0
17 27 32 0
-17 -27 -32 0
11 15 28 0
-11 -15 -28 0
16 22 28 0
-16 -22 -28 0
17 28 33 0
-17 -28 -33 0
1 14 29 0
-1 -14 -29 0
12 15 29 0
-12 -15 -29 0
16 23 29 0
-16 -23 -29 0
17 29 34 0
-17 -29 -34 0
2 14 30 0
-2 -14 -30 0
13 15 30 0
-13 -15 -30 0
16 24 30 0
-16 -24 -30 0
17 30 35 0
-17 -30 -35 0
3 14 31 0
-3 -14 -31 0
14 15 31 0
-14 -15 -31 0
16 25 31 0
-16 -25 -31 0
4 14 32 0
-4 -14 -32 0
15 32 0
-15 -32 0
16 26 32 0
-16 -26 -32 0
5 14 33 0
-5 -14 -33 0
15 16 33 0
-15 -16 -33 0
16 27 33 0
-16 -27 -33 0
6 14 34 0
-6 -14 -34 0
15 17 34 0
-15 -17 -34 0
16 28 34 0
-16 -28 -34 0
7 14 35 0
-7 -14 -35 0
15 18 35 0
-15 -18 -35 0
16 29 35 0
-16 -29 -35 0
