certificates/rado_a11_c182_N35.drat
-30 18 -35 0
15 18 -35 0
-34 -35 0
-35 0
19 -18 0
14 34 0
34 0
-18 0
2 0
19 0
15 0
-29 0
-7 0
0
